2 20
455 523 
0 45 35 63 53 94 99 1
1 47 37 32 22 13 47 1
2 13 3 56 46 79 74 2
3 76 66 92 82 17 50 2
4 27 17 98 88 8 51 1
5 25 15 34 24 8 38 2
6 104 94 51 41 92 72 1
7 77 67 62 52 93 27 1
8 73 63 24 14 54 53 1
9 31 21 99 89 63 66 2
10 39 29 93 83 40 11 1
11 82 72 83 73 18 47 1
12 70 60 97 87 18 31 2
13 91 81 39 29 30 41 2
14 29 19 67 57 1 63 2
15 73 63 105 95 42 38 1
16 46 36 21 11 59 48 1
17 40 30 92 82 48 54 2
18 63 53 18 8 28 30 1
19 60 50 20 10 51 53 2
